Route 1: 0 80 66 10 52 28 44 51 61 1 2 24 0
Route 2: 0 13 73 65 94 14 79 81 6 88 50 98 0
Route 3: 0 5 15 3 11 78 83 0
Route 4: 0 42 4 54 8 99 86 93 19 91 0
Route 5: 0 30 75 89 43 53 63 18 46 49 0
Route 6: 0 9 77 27 12 74 34 23 33 39 38 57 70 0
Route 7: 0 31 35 100 45 85 67 41 71 29 0
Route 8: 0 48 56 21 37 92 68 96 0
Route 9: 0 32 25 40 59 47 82 22 84 69 17 0
Route 10: 0 20 95 76 55 87 72 7 64 62 60 97 90 0
Route 11: 0 58 16 36 26 0
